%chk=C2H6.chk
# hf/3-21g geom=connectivity

Title Card Required

0 1
 C              
 C                  1            B1
 H                  1            B2    2            A1
 H                  2            B3    1            A2    3            D1    0
 H                  2            B4    1            A3    4            D2    0
 H                  2            B5    1            A4    3            D3    0
 H                  1            B6    2            A5    3            D4    0
 H                  1            B7    2            A6    4            D5    0

   B1             1.54000000
   B2             1.07000000
   B3             1.07000000
   B4             1.07000000
   B5             1.07000000
   B6             1.07000000
   B7             1.07000000
   A1           109.47125080
   A2           109.47123134
   A3           109.47120255
   A4           109.47120255
   A5           109.47120255
   A6           109.47121829
   D1           179.98892215
   D2          -119.99999260
   D3           -60.01108525
   D4           119.99998525
   D5            59.98890799

 1 7 1.0 3 1.0 8 1.0 2 1.0
 2 6 1.0 5 1.0 4 1.0
 3
 4
 5
 6
 7
 8

